(declare-const a Real)
(declare-const b Real)
(declare-const c Real)
(assert (= (+ a b c) 3))
(assert (> a 0))
(assert (> b 0))
(assert (> c 0))
(assert (> (+ (pow a 2) (pow b 2) (* -1 a b)) 0))
(assert (> (+ (pow b 2) (pow c 2) (* -1 b c)) 0))
(assert (> (+ (pow a 2) (pow c 2) (* -1 a c)) 0))
(assert (not (<= (+ 9 (* -12 a) (* 3 (pow (+ (* 6 (pow a 2)) (* 6 (pow b 2)) (* 6 (pow c 2)) (* -3 a b) (* -3 a c) (* -3 b c)) (/ 1 2))) (* 18 (pow (* a b c) (/ 1 2))) (* -1 (pow (+ b c) (+ 1 (* -1 (pow (+ b c) -1)))) (pow (+ (* b (pow 12 b) (pow 12 c)) (* c (pow 12 b) (pow 12 c))) (pow (+ b c) -1)))) 0)))
(check-sat)
(get-model)
(exit)